
Gurobi 10.0.1 (mac64[arm]) logging started Fri Sep 22 17:11:34 2023

Set parameter LogFile to value "results/scenario_capacity/CAP_g/CAP_g_-50/mip_log.txt"
Gurobi Optimizer version 10.0.1 build v10.0.1rc0 (mac64[arm])

CPU model: Apple M1
Thread count: 8 physical cores, 8 logical processors, using up to 8 threads

Optimize a model with 1724 rows, 6293 columns and 24662 nonzeros
Model fingerprint: 0xd7ee083b
Model has 8978 general constraints
Variable types: 1 continuous, 6292 integer (408 binary)
Coefficient statistics:
  Matrix range     [6e-02, 3e+05]
  Objective range  [9e-02, 2e+05]
  Bounds range     [1e+00, 2e+07]
  RHS range        [4e+03, 2e+04]
  GenCon rhs range [1e+00, 1e+00]
  GenCon coe range [1e+00, 1e+00]
Presolve removed 114 rows and 546 columns
Presolve time: 0.11s
Presolved: 1610 rows, 5747 columns, 22997 nonzeros
Presolved model has 4 SOS constraint(s)
Variable types: 0 continuous, 5747 integer (34 binary)

Root relaxation: objective 5.054151e+07, 6322 iterations, 0.08 seconds (0.09 work units)

    Nodes    |    Current Node    |     Objective Bounds      |     Work
 Expl Unexpl |  Obj  Depth IntInf | Incumbent    BestBd   Gap | It/Node Time

     0     0 5.0542e+07    0  586          - 5.0542e+07      -     -    0s
     0     0 5.0611e+07    0  910          - 5.0611e+07      -     -    0s
     0     0 5.1189e+07    0  904          - 5.1189e+07      -     -    0s
     0     0 5.1189e+07    0  903          - 5.1189e+07      -     -    0s
     0     0 5.1222e+07    0 1046          - 5.1222e+07      -     -    0s
     0     0 5.1251e+07    0 1321          - 5.1251e+07      -     -    0s
     0     0 5.1251e+07    0 1336          - 5.1251e+07      -     -    0s
     0     0 5.1251e+07    0 1350          - 5.1251e+07      -     -    0s
     0     0 5.1251e+07    0 1353          - 5.1251e+07      -     -    0s
     0     0 5.1251e+07    0 1074          - 5.1251e+07      -     -    0s
     0     0 5.1251e+07    0 1061          - 5.1251e+07      -     -    0s
H    0     0                    5.244602e+07 5.1251e+07  2.28%     -    1s
     0     2 5.1251e+07    0 1054 5.2446e+07 5.1251e+07  2.28%     -    1s
H   27    18                    5.242466e+07 5.1462e+07  1.84%  1130    2s
H   29    18                    5.187173e+07 5.1463e+07  0.79%  1090    2s
H  113    33                    5.183979e+07 5.1491e+07  0.67%   563    2s

Cutting planes:
  Gomory: 1
  Implied bound: 876
  MIR: 72
  Flow path: 1
  Inf proof: 3
  Relax-and-lift: 41

Explored 366 nodes (107888 simplex iterations) in 3.30 seconds (4.97 work units)
Thread count was 8 (of 8 available processors)

Solution count 4: 5.18398e+07 5.18717e+07 5.24247e+07 5.2446e+07 

Optimal solution found (tolerance 1.00e-04)
Best objective 5.183979274100e+07, best bound 5.183979270933e+07, gap 0.0000%

Gurobi 10.0.1 (mac64[arm]) logging started Fri Sep 22 17:18:53 2023

Set parameter LogFile to value "results/scenario_capacity/CAP_g/CAP_g_-50/mip_log.txt"
Gurobi Optimizer version 10.0.1 build v10.0.1rc0 (mac64[arm])

CPU model: Apple M1
Thread count: 8 physical cores, 8 logical processors, using up to 8 threads

Optimize a model with 1724 rows, 6293 columns and 24662 nonzeros
Model fingerprint: 0xcfa35a43
Model has 8978 general constraints
Variable types: 1 continuous, 6292 integer (408 binary)
Coefficient statistics:
  Matrix range     [6e-02, 3e+05]
  Objective range  [9e-02, 2e+05]
  Bounds range     [1e+00, 2e+07]
  RHS range        [4e+03, 2e+04]
  GenCon rhs range [1e+00, 1e+00]
  GenCon coe range [1e+00, 1e+00]
Presolve removed 124 rows and 556 columns
Presolve time: 0.11s
Presolved: 1600 rows, 5737 columns, 22975 nonzeros
Presolved model has 4 SOS constraint(s)
Variable types: 0 continuous, 5737 integer (34 binary)

Root relaxation: objective 5.594037e+07, 6794 iterations, 0.09 seconds (0.12 work units)

    Nodes    |    Current Node    |     Objective Bounds      |     Work
 Expl Unexpl |  Obj  Depth IntInf | Incumbent    BestBd   Gap | It/Node Time

     0     0 5.5940e+07    0  598          - 5.5940e+07      -     -    0s
     0     0 5.6019e+07    0  882          - 5.6019e+07      -     -    0s
     0     0 5.6589e+07    0  899          - 5.6589e+07      -     -    0s
     0     0 5.6589e+07    0  910          - 5.6589e+07      -     -    0s
     0     0 5.6589e+07    0  910          - 5.6589e+07      -     -    0s
     0     0 5.6589e+07    0  910          - 5.6589e+07      -     -    0s
     0     0 5.6589e+07    0 1116          - 5.6589e+07      -     -    0s
H    0     0                    6.116970e+07 5.6589e+07  7.49%     -    0s
     0     0 5.6613e+07    0 1276 6.1170e+07 5.6613e+07  7.45%     -    0s
     0     0 5.6688e+07    0 1337 6.1170e+07 5.6688e+07  7.33%     -    0s
     0     0 5.6706e+07    0 1302 6.1170e+07 5.6706e+07  7.30%     -    0s
     0     0 5.6707e+07    0 1320 6.1170e+07 5.6707e+07  7.30%     -    0s
H    0     0                    6.104504e+07 5.6762e+07  7.02%     -    1s
     0     0 5.6826e+07    0 1356 6.1045e+07 5.6826e+07  6.91%     -    1s
H    0     0                    5.849028e+07 5.6826e+07  2.85%     -    1s
     0     0 5.6876e+07    0 1348 5.8490e+07 5.6876e+07  2.76%     -    1s
H    0     0                    5.837344e+07 5.6876e+07  2.57%     -    1s
     0     2 5.6876e+07    0 1342 5.8373e+07 5.6876e+07  2.57%     -    1s
H   33    29                    5.836735e+07 5.6943e+07  2.44%  1023    3s
H   34    29                    5.806757e+07 5.6943e+07  1.94%   995    3s
H   71    37                    5.806750e+07 5.6955e+07  1.92%   663    3s
H   74    37                    5.804488e+07 5.6992e+07  1.81%   667    3s
H  182    99                    5.802571e+07 5.7010e+07  1.75%   379    4s
H  198   109                    5.756589e+07 5.7010e+07  0.97%   364    4s
*  199   109              16    5.753404e+07 5.7010e+07  0.91%   362    4s
H  251   101                    5.732400e+07 5.7020e+07  0.53%   324    4s
H  252   101                    5.732018e+07 5.7020e+07  0.52%   323    4s
*  265   100              13    5.728833e+07 5.7020e+07  0.47%   330    4s
*  268   100              11    5.726544e+07 5.7020e+07  0.43%   326    4s
H  284    99                    5.723351e+07 5.7020e+07  0.37%   323    4s
   342    65     cutoff    7      5.7234e+07 5.7056e+07  0.31%   341    5s

Cutting planes:
  Gomory: 5
  Cover: 1
  Implied bound: 935
  MIR: 63
  Flow path: 1
  Inf proof: 6
  Relax-and-lift: 52

Explored 450 nodes (147575 simplex iterations) in 5.21 seconds (6.40 work units)
Thread count was 8 (of 8 available processors)

Solution count 10: 5.72335e+07 5.72654e+07 5.72883e+07 ... 5.80675e+07

Optimal solution found (tolerance 1.00e-04)
Best objective 5.723350905000e+07, best bound 5.723350905000e+07, gap 0.0000%

Gurobi 10.0.1 (mac64[arm]) logging started Fri Sep 22 17:48:32 2023

Set parameter LogFile to value "results/scenario_capacity/CAP_g/CAP_g_-50/mip_log.txt"
Gurobi Optimizer version 10.0.1 build v10.0.1rc0 (mac64[arm])

CPU model: Apple M1
Thread count: 8 physical cores, 8 logical processors, using up to 8 threads

Optimize a model with 1694 rows, 6293 columns and 24572 nonzeros
Model fingerprint: 0x548f96e3
Model has 8978 general constraints
Variable types: 1 continuous, 6292 integer (408 binary)
Coefficient statistics:
  Matrix range     [6e-02, 3e+05]
  Objective range  [9e-02, 2e+05]
  Bounds range     [1e+00, 2e+07]
  RHS range        [4e+03, 2e+04]
  GenCon rhs range [1e+00, 1e+00]
  GenCon coe range [1e+00, 1e+00]
Presolve removed 67 rows and 502 columns
Presolve time: 0.10s
Presolved: 1627 rows, 5791 columns, 23138 nonzeros
Presolved model has 4 SOS constraint(s)
Variable types: 0 continuous, 5791 integer (34 binary)

Root relaxation: objective 5.272770e+07, 6321 iterations, 0.09 seconds (0.09 work units)

    Nodes    |    Current Node    |     Objective Bounds      |     Work
 Expl Unexpl |  Obj  Depth IntInf | Incumbent    BestBd   Gap | It/Node Time

     0     0 5.2728e+07    0  611          - 5.2728e+07      -     -    0s
     0     0 5.2791e+07    0  837          - 5.2791e+07      -     -    0s
     0     0 5.2796e+07    0  847          - 5.2796e+07      -     -    0s
     0     0 5.3373e+07    0  853          - 5.3373e+07      -     -    0s
H    0     0                    5.495584e+07 5.3373e+07  2.88%     -    0s
     0     0 5.3373e+07    0  855 5.4956e+07 5.3373e+07  2.88%     -    0s
     0     0 5.3373e+07    0  856 5.4956e+07 5.3373e+07  2.88%     -    0s
     0     0 5.3649e+07    0 1159 5.4956e+07 5.3649e+07  2.38%     -    0s
     0     0 5.3692e+07    0 1222 5.4956e+07 5.3692e+07  2.30%     -    0s
     0     0 5.3713e+07    0 1218 5.4956e+07 5.3713e+07  2.26%     -    0s
     0     0 5.3716e+07    0 1229 5.4956e+07 5.3716e+07  2.26%     -    0s
H    0     0                    5.456859e+07 5.3729e+07  1.54%     -    0s
     0     0 5.3746e+07    0 1207 5.4569e+07 5.3746e+07  1.51%     -    0s
     0     0 5.3773e+07    0 1184 5.4569e+07 5.3773e+07  1.46%     -    1s
     0     2 5.3773e+07    0 1179 5.4569e+07 5.3773e+07  1.46%     -    1s
H   35    38                    5.407369e+07 5.3773e+07  0.56%   701    2s
H   36    38                    5.404966e+07 5.3773e+07  0.51%   685    2s
H   77    62                    5.404878e+07 5.3773e+07  0.51%   478    2s
H   82    62                    5.404852e+07 5.3773e+07  0.51%   463    2s
H  248    81                    5.403933e+07 5.3773e+07  0.49%   263    2s
*  343    67               9    5.401644e+07 5.3817e+07  0.37%   253    3s

Cutting planes:
  Gomory: 5
  Cover: 1
  Implied bound: 602
  MIR: 53
  Flow path: 1
  Inf proof: 2
  Relax-and-lift: 45

Explored 511 nodes (132789 simplex iterations) in 3.72 seconds (5.15 work units)
Thread count was 8 (of 8 available processors)

Solution count 8: 5.40164e+07 5.40393e+07 5.40485e+07 ... 5.49558e+07

Optimal solution found (tolerance 1.00e-04)
Best objective 5.401643921000e+07, best bound 5.401643921000e+07, gap 0.0000%

Gurobi 10.0.1 (mac64[arm]) logging started Fri Sep 22 19:12:37 2023

Set parameter LogFile to value "results/scenario_capacity/CAP_g/CAP_g_-50/mip_log.txt"
Gurobi Optimizer version 10.0.1 build v10.0.1rc0 (mac64[arm])

CPU model: Apple M1
Thread count: 8 physical cores, 8 logical processors, using up to 8 threads

Optimize a model with 1694 rows, 6293 columns and 24572 nonzeros
Model fingerprint: 0x548f96e3
Model has 8978 general constraints
Variable types: 1 continuous, 6292 integer (408 binary)
Coefficient statistics:
  Matrix range     [6e-02, 3e+05]
  Objective range  [9e-02, 2e+05]
  Bounds range     [1e+00, 2e+07]
  RHS range        [4e+03, 2e+04]
  GenCon rhs range [1e+00, 1e+00]
  GenCon coe range [1e+00, 1e+00]
Presolve removed 67 rows and 502 columns
Presolve time: 0.11s
Presolved: 1627 rows, 5791 columns, 23138 nonzeros
Presolved model has 4 SOS constraint(s)
Variable types: 0 continuous, 5791 integer (34 binary)

Root relaxation: objective 5.272770e+07, 6321 iterations, 0.07 seconds (0.09 work units)

    Nodes    |    Current Node    |     Objective Bounds      |     Work
 Expl Unexpl |  Obj  Depth IntInf | Incumbent    BestBd   Gap | It/Node Time

     0     0 5.2728e+07    0  611          - 5.2728e+07      -     -    0s
     0     0 5.2791e+07    0  837          - 5.2791e+07      -     -    0s
     0     0 5.2796e+07    0  847          - 5.2796e+07      -     -    0s
     0     0 5.3373e+07    0  853          - 5.3373e+07      -     -    0s
H    0     0                    5.495584e+07 5.3373e+07  2.88%     -    0s
     0     0 5.3373e+07    0  855 5.4956e+07 5.3373e+07  2.88%     -    0s
     0     0 5.3373e+07    0  856 5.4956e+07 5.3373e+07  2.88%     -    0s
     0     0 5.3649e+07    0 1159 5.4956e+07 5.3649e+07  2.38%     -    0s
     0     0 5.3692e+07    0 1222 5.4956e+07 5.3692e+07  2.30%     -    0s
     0     0 5.3713e+07    0 1218 5.4956e+07 5.3713e+07  2.26%     -    0s
     0     0 5.3716e+07    0 1229 5.4956e+07 5.3716e+07  2.26%     -    0s
H    0     0                    5.456859e+07 5.3729e+07  1.54%     -    0s
     0     0 5.3746e+07    0 1207 5.4569e+07 5.3746e+07  1.51%     -    0s
     0     0 5.3773e+07    0 1184 5.4569e+07 5.3773e+07  1.46%     -    1s
     0     2 5.3773e+07    0 1179 5.4569e+07 5.3773e+07  1.46%     -    1s
H   35    38                    5.407369e+07 5.3773e+07  0.56%   701    2s
H   36    38                    5.404966e+07 5.3773e+07  0.51%   685    2s
H   77    62                    5.404878e+07 5.3773e+07  0.51%   478    2s
H   82    62                    5.404852e+07 5.3773e+07  0.51%   463    2s
H  248    81                    5.403933e+07 5.3773e+07  0.49%   263    2s
*  343    67               9    5.401644e+07 5.3817e+07  0.37%   253    3s

Cutting planes:
  Gomory: 5
  Cover: 1
  Implied bound: 602
  MIR: 53
  Flow path: 1
  Inf proof: 2
  Relax-and-lift: 45

Explored 511 nodes (132789 simplex iterations) in 3.53 seconds (5.15 work units)
Thread count was 8 (of 8 available processors)

Solution count 8: 5.40164e+07 5.40393e+07 5.40485e+07 ... 5.49558e+07

Optimal solution found (tolerance 1.00e-04)
Best objective 5.401643921000e+07, best bound 5.401643921000e+07, gap 0.0000%

Gurobi 10.0.1 (mac64[arm]) logging started Fri Sep 22 19:17:00 2023

Set parameter LogFile to value "results/scenario_capacity/CAP_g/CAP_g_-50/mip_log.txt"
Gurobi Optimizer version 10.0.1 build v10.0.1rc0 (mac64[arm])

CPU model: Apple M1
Thread count: 8 physical cores, 8 logical processors, using up to 8 threads

Optimize a model with 1694 rows, 6293 columns and 24572 nonzeros
Model fingerprint: 0x548f96e3
Model has 8978 general constraints
Variable types: 1 continuous, 6292 integer (408 binary)
Coefficient statistics:
  Matrix range     [6e-02, 3e+05]
  Objective range  [9e-02, 2e+05]
  Bounds range     [1e+00, 2e+07]
  RHS range        [4e+03, 2e+04]
  GenCon rhs range [1e+00, 1e+00]
  GenCon coe range [1e+00, 1e+00]
Presolve removed 67 rows and 502 columns
Presolve time: 0.11s
Presolved: 1627 rows, 5791 columns, 23138 nonzeros
Presolved model has 4 SOS constraint(s)
Variable types: 0 continuous, 5791 integer (34 binary)

Root relaxation: objective 5.272770e+07, 6321 iterations, 0.07 seconds (0.09 work units)

    Nodes    |    Current Node    |     Objective Bounds      |     Work
 Expl Unexpl |  Obj  Depth IntInf | Incumbent    BestBd   Gap | It/Node Time

     0     0 5.2728e+07    0  611          - 5.2728e+07      -     -    0s
     0     0 5.2791e+07    0  837          - 5.2791e+07      -     -    0s
     0     0 5.2796e+07    0  847          - 5.2796e+07      -     -    0s
     0     0 5.3373e+07    0  853          - 5.3373e+07      -     -    0s
H    0     0                    5.495584e+07 5.3373e+07  2.88%     -    0s
     0     0 5.3373e+07    0  855 5.4956e+07 5.3373e+07  2.88%     -    0s
     0     0 5.3373e+07    0  856 5.4956e+07 5.3373e+07  2.88%     -    0s
     0     0 5.3649e+07    0 1159 5.4956e+07 5.3649e+07  2.38%     -    0s
     0     0 5.3692e+07    0 1222 5.4956e+07 5.3692e+07  2.30%     -    0s
     0     0 5.3713e+07    0 1218 5.4956e+07 5.3713e+07  2.26%     -    0s
     0     0 5.3716e+07    0 1229 5.4956e+07 5.3716e+07  2.26%     -    0s
H    0     0                    5.456859e+07 5.3729e+07  1.54%     -    0s
     0     0 5.3746e+07    0 1207 5.4569e+07 5.3746e+07  1.51%     -    0s
     0     0 5.3773e+07    0 1184 5.4569e+07 5.3773e+07  1.46%     -    1s
     0     2 5.3773e+07    0 1179 5.4569e+07 5.3773e+07  1.46%     -    1s
H   35    38                    5.407369e+07 5.3773e+07  0.56%   701    1s
H   36    38                    5.404966e+07 5.3773e+07  0.51%   685    1s
H   77    62                    5.404878e+07 5.3773e+07  0.51%   478    2s
H   82    62                    5.404852e+07 5.3773e+07  0.51%   463    2s
H  248    81                    5.403933e+07 5.3773e+07  0.49%   263    2s
*  343    67               9    5.401644e+07 5.3817e+07  0.37%   253    2s

Cutting planes:
  Gomory: 5
  Cover: 1
  Implied bound: 602
  MIR: 53
  Flow path: 1
  Inf proof: 2
  Relax-and-lift: 45

Explored 511 nodes (132789 simplex iterations) in 3.36 seconds (5.15 work units)
Thread count was 8 (of 8 available processors)

Solution count 8: 5.40164e+07 5.40393e+07 5.40485e+07 ... 5.49558e+07

Optimal solution found (tolerance 1.00e-04)
Best objective 5.401643921000e+07, best bound 5.401643921000e+07, gap 0.0000%
Discarded solution information

Gurobi 10.0.1 (mac64[arm]) logging started Fri Sep 22 19:24:05 2023

Set parameter LogFile to value "results/scenario_capacity/CAP_g/CAP_g_-50/mip_log.txt"
Gurobi Optimizer version 10.0.1 build v10.0.1rc0 (mac64[arm])

CPU model: Apple M1
Thread count: 8 physical cores, 8 logical processors, using up to 8 threads

Optimize a model with 1694 rows, 6293 columns and 24572 nonzeros
Model fingerprint: 0x510424a6
Model has 8978 general constraints
Variable types: 1 continuous, 6292 integer (408 binary)
Coefficient statistics:
  Matrix range     [6e-02, 3e+05]
  Objective range  [9e-02, 2e+05]
  Bounds range     [1e+00, 2e+07]
  RHS range        [4e+03, 3e+04]
  GenCon rhs range [1e+00, 1e+00]
  GenCon coe range [1e+00, 1e+00]
Presolve removed 64 rows and 478 columns
Presolve time: 0.08s
Presolved: 1630 rows, 5815 columns, 23167 nonzeros
Presolved model has 4 SOS constraint(s)
Variable types: 0 continuous, 5815 integer (34 binary)

Root relaxation: objective 8.892732e+07, 5873 iterations, 0.08 seconds (0.10 work units)

    Nodes    |    Current Node    |     Objective Bounds      |     Work
 Expl Unexpl |  Obj  Depth IntInf | Incumbent    BestBd   Gap | It/Node Time

     0     0 8.8927e+07    0  545          - 8.8927e+07      -     -    0s
     0     0 8.9933e+07    0  534          - 8.9933e+07      -     -    0s
H    0     0                    9.804909e+07 8.9933e+07  8.28%     -    0s
     0     0 8.9959e+07    0  673 9.8049e+07 8.9959e+07  8.25%     -    0s
     0     0 8.9959e+07    0  550 9.8049e+07 8.9959e+07  8.25%     -    0s
     0     0 8.9963e+07    0 1011 9.8049e+07 8.9963e+07  8.25%     -    0s
     0     0 9.0038e+07    0 1048 9.8049e+07 9.0038e+07  8.17%     -    0s
     0     0 9.0055e+07    0  935 9.8049e+07 9.0055e+07  8.15%     -    0s
     0     0 9.0056e+07    0  940 9.8049e+07 9.0056e+07  8.15%     -    0s
     0     0 9.0064e+07    0  932 9.8049e+07 9.0064e+07  8.14%     -    0s
     0     0 9.0077e+07    0  930 9.8049e+07 9.0077e+07  8.13%     -    0s
H    0     0                    9.345717e+07 9.0077e+07  3.62%     -    1s
     0     2 9.0077e+07    0  928 9.3457e+07 9.0077e+07  3.62%     -    1s
H   31    38                    9.307730e+07 9.0209e+07  3.08%  1013    2s
H   32    38                    9.306123e+07 9.0209e+07  3.06%   998    2s
H   33    38                    9.294747e+07 9.0209e+07  2.95%   984    2s
H   34    38                    9.294670e+07 9.0209e+07  2.95%   980    2s
H   35    38                    9.287766e+07 9.0209e+07  2.87%   962    2s
H   68    70                    9.286187e+07 9.0209e+07  2.86%   830    2s
H   69    70                    9.280722e+07 9.0209e+07  2.80%   840    2s
H   74    70                    9.277506e+07 9.0209e+07  2.77%   828    2s
H  110   100                    9.274899e+07 9.0209e+07  2.74%   651    2s
H  110   100                    9.273513e+07 9.0209e+07  2.72%   651    2s
H  233   136                    9.270026e+07 9.0224e+07  2.67%   518    4s
H  310   176                    9.270002e+07 9.0224e+07  2.67%   473    4s
H  317   176                    9.269626e+07 9.0224e+07  2.67%   468    4s
   391   201 9.1619e+07   10  442 9.2696e+07 9.0278e+07  2.61%   445    5s
H  422   221                    9.259346e+07 9.0384e+07  2.39%   432    5s
*  425   221              18    9.254014e+07 9.0384e+07  2.33%   429    5s
H  520   232                    9.252651e+07 9.0439e+07  2.26%   393    5s
H  750   288                    9.238293e+07 9.0590e+07  1.94%   354    6s
H  785   298                    9.223783e+07 9.0744e+07  1.62%   351    7s
H  868   309                    9.223739e+07 9.0937e+07  1.41%   344    7s
H  885   309                    9.221731e+07 9.0937e+07  1.39%   351    7s
H 1088   349                    9.221728e+07 9.1017e+07  1.30%   332    8s
  1463   385 9.1901e+07    9  669 9.2217e+07 9.1118e+07  1.19%   330   10s
H 1702   386                    9.221728e+07 9.1154e+07  1.15%   323   11s
H 1857   421                    9.221727e+07 9.1208e+07  1.09%   326   12s
H 1866   421                    9.214797e+07 9.1208e+07  1.02%   326   12s
H 2205   333                    9.211732e+07 9.1334e+07  0.85%   334   14s
H 2348   275                    9.211711e+07 9.1420e+07  0.76%   342   14s
H 2370   275                    9.211702e+07 9.1454e+07  0.72%   343   14s
  2416   245     cutoff    9      9.2117e+07 9.1498e+07  0.67%   347   15s

Cutting planes:
  Gomory: 5
  Implied bound: 834
  MIR: 109
  Flow path: 1
  Inf proof: 26
  Relax-and-lift: 99

Explored 2847 nodes (1053449 simplex iterations) in 17.20 seconds (31.56 work units)
Thread count was 8 (of 8 available processors)

Solution count 10: 9.2117e+07 9.21171e+07 9.21173e+07 ... 9.22378e+07

Optimal solution found (tolerance 1.00e-04)
Best objective 9.211701844000e+07, best bound 9.211701844000e+07, gap 0.0000%
Discarded solution information

Gurobi 10.0.1 (mac64[arm]) logging started Fri Sep 22 19:30:31 2023

Set parameter LogFile to value "results/scenario_capacity/CAP_g/CAP_g_-50/mip_log.txt"
Gurobi Optimizer version 10.0.1 build v10.0.1rc0 (mac64[arm])

CPU model: Apple M1
Thread count: 8 physical cores, 8 logical processors, using up to 8 threads

Optimize a model with 1694 rows, 6293 columns and 24572 nonzeros
Model fingerprint: 0x510424a6
Model has 8978 general constraints
Variable types: 1 continuous, 6292 integer (408 binary)
Coefficient statistics:
  Matrix range     [6e-02, 3e+05]
  Objective range  [9e-02, 2e+05]
  Bounds range     [1e+00, 2e+07]
  RHS range        [4e+03, 3e+04]
  GenCon rhs range [1e+00, 1e+00]
  GenCon coe range [1e+00, 1e+00]
Presolve removed 64 rows and 478 columns
Presolve time: 0.07s
Presolved: 1630 rows, 5815 columns, 23167 nonzeros
Presolved model has 4 SOS constraint(s)
Variable types: 0 continuous, 5815 integer (34 binary)

Root relaxation: objective 8.892732e+07, 5873 iterations, 0.08 seconds (0.10 work units)

    Nodes    |    Current Node    |     Objective Bounds      |     Work
 Expl Unexpl |  Obj  Depth IntInf | Incumbent    BestBd   Gap | It/Node Time

     0     0 8.8927e+07    0  545          - 8.8927e+07      -     -    0s
     0     0 8.9933e+07    0  534          - 8.9933e+07      -     -    0s
H    0     0                    9.804909e+07 8.9933e+07  8.28%     -    0s
     0     0 8.9959e+07    0  673 9.8049e+07 8.9959e+07  8.25%     -    0s
     0     0 8.9959e+07    0  550 9.8049e+07 8.9959e+07  8.25%     -    0s
     0     0 8.9963e+07    0 1011 9.8049e+07 8.9963e+07  8.25%     -    0s
     0     0 9.0038e+07    0 1048 9.8049e+07 9.0038e+07  8.17%     -    0s
     0     0 9.0055e+07    0  935 9.8049e+07 9.0055e+07  8.15%     -    0s
     0     0 9.0056e+07    0  940 9.8049e+07 9.0056e+07  8.15%     -    0s
     0     0 9.0064e+07    0  932 9.8049e+07 9.0064e+07  8.14%     -    0s
     0     0 9.0077e+07    0  930 9.8049e+07 9.0077e+07  8.13%     -    0s
H    0     0                    9.345717e+07 9.0077e+07  3.62%     -    1s
     0     2 9.0077e+07    0  928 9.3457e+07 9.0077e+07  3.62%     -    1s
H   31    38                    9.307730e+07 9.0209e+07  3.08%  1013    2s
H   32    38                    9.306123e+07 9.0209e+07  3.06%   998    2s
H   33    38                    9.294747e+07 9.0209e+07  2.95%   984    2s
H   34    38                    9.294670e+07 9.0209e+07  2.95%   980    2s
H   35    38                    9.287766e+07 9.0209e+07  2.87%   962    2s
H   68    70                    9.286187e+07 9.0209e+07  2.86%   830    2s
H   69    70                    9.280722e+07 9.0209e+07  2.80%   840    2s
H   74    70                    9.277506e+07 9.0209e+07  2.77%   828    2s
H  110   100                    9.274899e+07 9.0209e+07  2.74%   651    3s
H  110   100                    9.273513e+07 9.0209e+07  2.72%   651    3s
H  233   136                    9.270026e+07 9.0224e+07  2.67%   518    4s
H  310   176                    9.270002e+07 9.0224e+07  2.67%   473    4s
H  317   176                    9.269626e+07 9.0224e+07  2.67%   468    4s
   336   175 9.2413e+07   18  209 9.2696e+07 9.0278e+07  2.61%   457    5s
H  422   221                    9.259346e+07 9.0384e+07  2.39%   432    6s
*  425   221              18    9.254014e+07 9.0384e+07  2.33%   429    6s
H  520   232                    9.252651e+07 9.0439e+07  2.26%   393    6s
H  750   288                    9.238293e+07 9.0590e+07  1.94%   354    7s
H  785   298                    9.223783e+07 9.0744e+07  1.62%   351    8s
H  868   309                    9.223739e+07 9.0937e+07  1.41%   344    9s
H  885   309                    9.221731e+07 9.0937e+07  1.39%   351    9s
   967   335 9.1398e+07    7  606 9.2217e+07 9.0993e+07  1.33%   342   10s
H 1088   349                    9.221728e+07 9.1017e+07  1.30%   332   10s
H 1702   386                    9.221728e+07 9.1154e+07  1.15%   323   13s
H 1857   421                    9.221727e+07 9.1208e+07  1.09%   326   14s
H 1866   421                    9.214797e+07 9.1208e+07  1.02%   326   14s
  2011   384 9.1788e+07   10  438 9.2148e+07 9.1264e+07  0.96%   326   15s
H 2205   333                    9.211732e+07 9.1334e+07  0.85%   334   16s
H 2348   275                    9.211711e+07 9.1420e+07  0.76%   342   17s
H 2370   275                    9.211702e+07 9.1454e+07  0.72%   343   17s
  2698    47     cutoff    7      9.2117e+07 9.1872e+07  0.27%   372   20s

Cutting planes:
  Gomory: 5
  Implied bound: 834
  MIR: 109
  Flow path: 1
  Inf proof: 26
  Relax-and-lift: 99

Explored 2847 nodes (1053449 simplex iterations) in 20.23 seconds (31.56 work units)
Thread count was 8 (of 8 available processors)

Solution count 10: 9.2117e+07 9.21171e+07 9.21173e+07 ... 9.22378e+07

Optimal solution found (tolerance 1.00e-04)
Best objective 9.211701844000e+07, best bound 9.211701844000e+07, gap 0.0000%
Discarded solution information

Gurobi 10.0.1 (mac64[arm]) logging started Fri Sep 22 20:39:31 2023

Set parameter LogFile to value "results/scenario_capacity/CAP_g/CAP_g_-50/mip_log.txt"
Gurobi Optimizer version 10.0.1 build v10.0.1rc0 (mac64[arm])

CPU model: Apple M1
Thread count: 8 physical cores, 8 logical processors, using up to 8 threads

Optimize a model with 1694 rows, 6293 columns and 24572 nonzeros
Model fingerprint: 0x510424a6
Model has 8978 general constraints
Variable types: 1 continuous, 6292 integer (408 binary)
Coefficient statistics:
  Matrix range     [6e-02, 3e+05]
  Objective range  [9e-02, 2e+05]
  Bounds range     [1e+00, 2e+07]
  RHS range        [4e+03, 3e+04]
  GenCon rhs range [1e+00, 1e+00]
  GenCon coe range [1e+00, 1e+00]
Presolve removed 64 rows and 478 columns
Presolve time: 0.09s
Presolved: 1630 rows, 5815 columns, 23167 nonzeros
Presolved model has 4 SOS constraint(s)
Variable types: 0 continuous, 5815 integer (34 binary)

Root relaxation: objective 8.892732e+07, 5873 iterations, 0.09 seconds (0.10 work units)

    Nodes    |    Current Node    |     Objective Bounds      |     Work
 Expl Unexpl |  Obj  Depth IntInf | Incumbent    BestBd   Gap | It/Node Time

     0     0 8.8927e+07    0  545          - 8.8927e+07      -     -    0s
     0     0 8.9933e+07    0  534          - 8.9933e+07      -     -    0s
H    0     0                    9.804909e+07 8.9933e+07  8.28%     -    0s
     0     0 8.9959e+07    0  673 9.8049e+07 8.9959e+07  8.25%     -    0s
     0     0 8.9959e+07    0  550 9.8049e+07 8.9959e+07  8.25%     -    0s
     0     0 8.9963e+07    0 1011 9.8049e+07 8.9963e+07  8.25%     -    0s
     0     0 9.0038e+07    0 1048 9.8049e+07 9.0038e+07  8.17%     -    0s
     0     0 9.0055e+07    0  935 9.8049e+07 9.0055e+07  8.15%     -    0s
     0     0 9.0056e+07    0  940 9.8049e+07 9.0056e+07  8.15%     -    0s
     0     0 9.0064e+07    0  932 9.8049e+07 9.0064e+07  8.14%     -    0s
     0     0 9.0077e+07    0  930 9.8049e+07 9.0077e+07  8.13%     -    0s
H    0     0                    9.345717e+07 9.0077e+07  3.62%     -    1s
     0     2 9.0077e+07    0  928 9.3457e+07 9.0077e+07  3.62%     -    1s
H   31    38                    9.307730e+07 9.0209e+07  3.08%  1013    2s
H   32    38                    9.306123e+07 9.0209e+07  3.06%   998    2s
H   33    38                    9.294747e+07 9.0209e+07  2.95%   984    2s
H   34    38                    9.294670e+07 9.0209e+07  2.95%   980    2s
H   35    38                    9.287766e+07 9.0209e+07  2.87%   962    2s
H   68    70                    9.286187e+07 9.0209e+07  2.86%   830    2s
H   69    70                    9.280722e+07 9.0209e+07  2.80%   840    2s
H   74    70                    9.277506e+07 9.0209e+07  2.77%   828    2s
H  110   100                    9.274899e+07 9.0209e+07  2.74%   651    2s
H  110   100                    9.273513e+07 9.0209e+07  2.72%   651    2s
H  233   136                    9.270026e+07 9.0224e+07  2.67%   518    3s
H  310   176                    9.270002e+07 9.0224e+07  2.67%   473    4s
H  317   176                    9.269626e+07 9.0224e+07  2.67%   468    4s
   391   201 9.1619e+07   10  442 9.2696e+07 9.0278e+07  2.61%   445    5s
H  422   221                    9.259346e+07 9.0384e+07  2.39%   432    5s
*  425   221              18    9.254014e+07 9.0384e+07  2.33%   429    5s
H  520   232                    9.252651e+07 9.0439e+07  2.26%   393    5s
H  750   288                    9.238293e+07 9.0590e+07  1.94%   354    6s
H  785   298                    9.223783e+07 9.0744e+07  1.62%   351    7s
H  868   309                    9.223739e+07 9.0937e+07  1.41%   344    7s
H  885   309                    9.221731e+07 9.0937e+07  1.39%   351    7s
H 1088   349                    9.221728e+07 9.1017e+07  1.30%   332    8s
  1410   377 9.1966e+07   12  621 9.2217e+07 9.1114e+07  1.20%   327   10s
H 1702   386                    9.221728e+07 9.1154e+07  1.15%   323   11s
H 1857   421                    9.221727e+07 9.1208e+07  1.09%   326   12s
H 1866   421                    9.214797e+07 9.1208e+07  1.02%   326   12s
H 2205   333                    9.211732e+07 9.1334e+07  0.85%   334   14s
  2275   308     cutoff   12      9.2117e+07 9.1385e+07  0.80%   337   15s
H 2348   275                    9.211711e+07 9.1420e+07  0.76%   342   15s
H 2370   275                    9.211702e+07 9.1454e+07  0.72%   343   15s

Cutting planes:
  Gomory: 5
  Implied bound: 834
  MIR: 109
  Flow path: 1
  Inf proof: 26
  Relax-and-lift: 99

Explored 2847 nodes (1053449 simplex iterations) in 18.07 seconds (31.56 work units)
Thread count was 8 (of 8 available processors)

Solution count 10: 9.2117e+07 9.21171e+07 9.21173e+07 ... 9.22378e+07

Optimal solution found (tolerance 1.00e-04)
Best objective 9.211701844000e+07, best bound 9.211701844000e+07, gap 0.0000%
Discarded solution information

Gurobi 10.0.1 (mac64[arm]) logging started Fri Sep 22 20:40:41 2023

Set parameter LogFile to value "results/scenario_capacity/CAP_g/CAP_g_-50/mip_log.txt"
Gurobi Optimizer version 10.0.1 build v10.0.1rc0 (mac64[arm])

CPU model: Apple M1
Thread count: 8 physical cores, 8 logical processors, using up to 8 threads

Optimize a model with 1694 rows, 6293 columns and 24572 nonzeros
Model fingerprint: 0x9a97f1d7
Model has 8978 general constraints
Variable types: 1 continuous, 6292 integer (408 binary)
Coefficient statistics:
  Matrix range     [6e-02, 3e+05]
  Objective range  [9e-02, 2e+05]
  Bounds range     [1e+00, 2e+07]
  RHS range        [4e+03, 2e+04]
  GenCon rhs range [1e+00, 1e+00]
  GenCon coe range [1e+00, 1e+00]
Presolve removed 67 rows and 502 columns
Presolve time: 0.07s
Presolved: 1627 rows, 5791 columns, 23173 nonzeros
Presolved model has 4 SOS constraint(s)
Variable types: 0 continuous, 5791 integer (34 binary)

Root relaxation: objective 5.692989e+07, 6417 iterations, 0.09 seconds (0.12 work units)

    Nodes    |    Current Node    |     Objective Bounds      |     Work
 Expl Unexpl |  Obj  Depth IntInf | Incumbent    BestBd   Gap | It/Node Time

     0     0 5.6930e+07    0  655          - 5.6930e+07      -     -    0s
     0     0 5.7128e+07    0  924          - 5.7128e+07      -     -    0s
H    0     0                    6.532264e+07 5.7147e+07  12.5%     -    0s
     0     0 5.7626e+07    0  971 6.5323e+07 5.7626e+07  11.8%     -    0s
     0     0 5.7626e+07    0 1094 6.5323e+07 5.7626e+07  11.8%     -    0s
     0     0 5.7626e+07    0 1101 6.5323e+07 5.7626e+07  11.8%     -    0s
H    0     0                    6.307552e+07 5.7626e+07  8.64%     -    0s
     0     0 5.8090e+07    0 1045 6.3076e+07 5.8090e+07  7.90%     -    0s
     0     0 5.8164e+07    0 1224 6.3076e+07 5.8164e+07  7.79%     -    0s
     0     0 5.8174e+07    0 1066 6.3076e+07 5.8174e+07  7.77%     -    0s
     0     0 5.8182e+07    0 1005 6.3076e+07 5.8182e+07  7.76%     -    0s
H    0     0                    6.306452e+07 5.8192e+07  7.73%     -    0s
     0     0 5.8241e+07    0 1148 6.3065e+07 5.8241e+07  7.65%     -    0s
     0     0 5.8264e+07    0 1136 6.3065e+07 5.8264e+07  7.61%     -    1s
H    0     0                    6.283516e+07 5.8264e+07  7.27%     -    1s
H    0     0                    6.055027e+07 5.8264e+07  3.78%     -    1s
     0     2 5.8264e+07    0 1133 6.0550e+07 5.8264e+07  3.78%     -    1s
H   33    40                    6.053583e+07 5.8264e+07  3.75%   952    2s
H   34    40                    6.051381e+07 5.8264e+07  3.72%   940    2s
H   35    40                    5.971868e+07 5.8264e+07  2.44%   938    2s
H   76    69                    5.969659e+07 5.8264e+07  2.40%   697    2s
H   78    69                    5.908176e+07 5.8264e+07  1.38%   689    2s
H  131    75                    5.849605e+07 5.8264e+07  0.40%   529    2s
*  214    36               8    5.849410e+07 5.8377e+07  0.20%   418    3s
*  216    36               9    5.847813e+07 5.8377e+07  0.17%   414    3s
*  229     2              10    5.844826e+07 5.8396e+07  0.09%   463    3s

Cutting planes:
  Gomory: 3
  Implied bound: 579
  MIR: 107
  Flow path: 1
  Inf proof: 2
  Relax-and-lift: 65

Explored 266 nodes (121227 simplex iterations) in 3.38 seconds (5.58 work units)
Thread count was 8 (of 8 available processors)

Solution count 10: 5.84483e+07 5.84781e+07 5.84941e+07 ... 6.05503e+07

Optimal solution found (tolerance 1.00e-04)
Best objective 5.844825894500e+07, best bound 5.844825894500e+07, gap 0.0000%
Discarded solution information
